solution status: gap limit reached
objective value:                          74103.69036
y#3                                                 1 	(obj:5700)
y#9                                                 1 	(obj:5700)
y#10                                                1 	(obj:5700)
y#15                                                1 	(obj:5700)
y#17                                                1 	(obj:5700)
y#20                                                1 	(obj:5700)
y#21                                                1 	(obj:5700)
y#24                                                1 	(obj:5700)
y#25                                                1 	(obj:5700)
y#26                                                1 	(obj:5700)
y#32                                                1 	(obj:5700)
y#41                                                1 	(obj:5700)
y#43                                                1 	(obj:5700)
x#1#26                                              1 	(obj:0.01343)
x#2#43                                              1 	(obj:0.02635)
x#3#41                                              1 	(obj:0.03213)
x#4#32                                              1 	(obj:0.01649)
x#5#3                                               1 	(obj:0.04454)
x#6#32                                              1 	(obj:0.03961)
x#7#43                                              1 	(obj:0.02431)
x#8#21                                              1 	(obj:0.00255)
x#9#20                                              1 	(obj:0.03944)
x#10#43                                             1 	(obj:0.02958)
x#11#21                                             1 	(obj:0.01496)
x#12#15                                             1 	(obj:0.0085)
x#13#41                                             1 	(obj:0.02822)
x#14#25                                             1 	(obj:0.03791)
x#15#3                                              1 	(obj:0.04063)
x#16#26                                             1 	(obj:0.00595)
x#17#24                                             1 	(obj:0.00272)
x#18#32                                             1 	(obj:0.03689)
x#19#24                                             1 	(obj:0.02074)
x#20#24                                             1 	(obj:0.01734)
x#21#25                                             1 	(obj:0.00187)
x#22#26                                             1 	(obj:0.03349)
x#23#17                                             1 	(obj:0.01054)
x#24#3                                              1 	(obj:0.01309)
x#25#24                                             1 	(obj:0.01139)
x#26#3                                              1 	(obj:0.01139)
x#27#10                                             1 	(obj:0.03383)
x#28#32                                             1 	(obj:0.00867)
x#29#20                                             1 	(obj:0.03927)
x#30#32                                             1 	(obj:0.00391)
x#31#41                                             1 	(obj:0.01785)
x#32#15                                             1 	(obj:0.01292)
x#33#32                                             1 	(obj:0.03485)
x#34#26                                             1 	(obj:0.02941)
x#35#10                                             1 	(obj:0.02193)
x#36#15                                             1 	(obj:0.01802)
x#37#32                                             1 	(obj:0.00357)
x#38#21                                             1 	(obj:0.02159)
x#39#26                                             1 	(obj:0.02822)
x#40#20                                             1 	(obj:0.0153)
x#41#25                                             1 	(obj:0.03111)
x#42#21                                             1 	(obj:0.00765)
x#43#32                                             1 	(obj:0.03876)
x#44#24                                             1 	(obj:0.02057)
x#45#9                                              1 	(obj:0.00748)
x#46#25                                             1 	(obj:0.06732)
x#47#41                                             1 	(obj:0.01088)
x#48#3                                              1 	(obj:0.00034)
x#49#26                                             1 	(obj:0.02941)
x#50#20                                             1 	(obj:0.02363)
x#51#9                                              1 	(obj:0.03519)
x#52#9                                              1 	(obj:0.01904)
x#53#43                                             1 	(obj:0.02125)
x#54#17                                             1 	(obj:0.03723)
x#55#41                                             1 	(obj:0.04658)
x#56#17                                             1 	(obj:0.0153)
x#57#17                                             1 	(obj:0.03825)
x#58#9                                              1 	(obj:0.00085)
x#59#43                                             1 	(obj:0.03519)
x#60#25                                             1 	(obj:0.00867)
x#61#3                                              1 	(obj:0.01564)
x#62#15                                             1 	(obj:0.00969)
x#63#21                                             1 	(obj:0.02822)
x#64#17                                             1 	(obj:0.03689)
x#65#3                                              1 	(obj:0.04131)
x#66#9                                              1 	(obj:0.0187)
x#67#25                                             1 	(obj:0.00901)
x#68#41                                             1 	(obj:0.01904)
x#69#17                                             1 	(obj:0.03621)
x#70#3                                              1 	(obj:0.02295)
x#71#10                                             1 	(obj:0.01955)
x#72#41                                             1 	(obj:0.01989)
x#73#25                                             1 	(obj:0.04658)
x#74#17                                             1 	(obj:0.01751)
x#75#25                                             1 	(obj:0.06018)
x#76#10                                             1 	(obj:0.04335)
x#77#21                                             1 	(obj:0.01156)
x#78#26                                             1 	(obj:0.01428)
x#79#3                                              1 	(obj:0.01241)
x#80#15                                             1 	(obj:0.01887)
x#81#26                                             1 	(obj:0.02057)
x#82#26                                             1 	(obj:0.00408)
x#83#20                                             1 	(obj:0.00765)
x#84#41                                             1 	(obj:0.00731)
x#85#26                                             1 	(obj:0.03298)
x#86#43                                             1 	(obj:0.00476)
x#87#32                                             1 	(obj:0.03383)
x#88#20                                             1 	(obj:0.00561)
x#89#17                                             1 	(obj:0.02244)
x#90#15                                             1 	(obj:0.02227)
x#91#15                                             1 	(obj:0.02074)
x#92#21                                             1 	(obj:0.07497)
x#93#17                                             1 	(obj:0.00969)
x#94#24                                             1 	(obj:0.02006)
x#95#25                                             1 	(obj:0.02278)
x#96#9                                              1 	(obj:0.03179)
x#97#9                                              1 	(obj:0.04199)
x#98#3                                              1 	(obj:0.0119)
x#99#25                                             1 	(obj:0.01394)
x#100#3                                             1 	(obj:0.02431)
x#101#21                                            1 	(obj:0.01564)
x#102#43                                            1 	(obj:0.04998)
x#103#21                                            1 	(obj:0.0255)
x#104#43                                            1 	(obj:0.01054)
x#105#21                                            1 	(obj:0.0102)
x#106#32                                            1 	(obj:0.04029)
x#107#15                                            1 	(obj:0.01275)
x#108#43                                            1 	(obj:0.01258)
x#109#25                                            1 	(obj:0.03485)
x#110#10                                            1 	(obj:0.04794)
x#111#17                                            1 	(obj:0.01819)
x#112#20                                            1 	(obj:0.00816)
x#113#20                                            1 	(obj:0.02669)
x#114#10                                            1 	(obj:0.03876)
x#115#25                                            1 	(obj:0.04097)
x#116#9                                             1 	(obj:0.00629)
x#117#20                                            1 	(obj:0.02533)
x#118#10                                            1 	(obj:0.04335)
x#119#10                                            1 	(obj:0.01649)
x#120#20                                            1 	(obj:0.01853)
x#121#43                                            1 	(obj:0.00544)
x#122#20                                            1 	(obj:0.00731)
x#123#9                                             1 	(obj:0.01921)
x#124#17                                            1 	(obj:0.01258)
x#125#20                                            1 	(obj:0.00731)
x#126#15                                            1 	(obj:0.051)
x#127#10                                            1 	(obj:0.04335)
x#128#26                                            1 	(obj:0.01921)
x#129#9                                             1 	(obj:0.01326)
x#130#3                                             1 	(obj:0.00799)
x#131#41                                            1 	(obj:0.03604)
x#132#24                                            1 	(obj:0.00799)
x#133#21                                            1 	(obj:0.0102)
x#134#43                                            1 	(obj:0.03587)
x#135#26                                            1 	(obj:0.02584)
x#136#32                                            1 	(obj:0.01972)
x#137#24                                            1 	(obj:0.06358)
x#138#24                                            1 	(obj:0.02006)
x#139#24                                            1 	(obj:0.02142)
x#140#9                                             1 	(obj:0.01683)
x#141#24                                            1 	(obj:0.04437)
x#142#10                                            1 	(obj:0.03893)
x#143#15                                            1 	(obj:0.03587)
x#144#41                                            1 	(obj:0.02771)
x#145#9                                             1 	(obj:0.17255)
x#146#15                                            1 	(obj:0.03553)
x#147#41                                            1 	(obj:0.01972)
x#148#24                                            1 	(obj:0.01972)
x#149#17                                            1 	(obj:0.01547)
x#150#10                                            1 	(obj:0.04964)
